Version identifier: 22.1.1.0 | 2022-11-28 | 9160aff4d
CPXPARAM_ClockType                               1
CPXPARAM_Read_DataCheck                          1
CPXPARAM_Threads                                 1
CPXPARAM_TimeLimit                               7200
CPXPARAM_MIP_Tolerances_AbsMIPGap                0
CPXPARAM_MIP_Tolerances_MIPGap                   0
CPXPARAM_MIP_Tolerances_Integrality              0
Tried aggregator 6 times.
MIP Presolve eliminated 82886 rows and 9658 columns.
MIP Presolve modified 69607 coefficients.
Aggregator did 37361 substitutions.
Reduced MIP has 562754 rows, 221751 columns, and 1766768 nonzeros.
Reduced MIP has 221751 binaries, 0 generals, 0 SOSs, and 0 indicators.
Presolve time = 7.89 sec. (4035.40 ticks)
Probing fixed 981 vars, tightened 0 bounds.
Probing time = 7.95 sec. (1969.53 ticks)
Cover probing fixed 0 vars, tightened 3 bounds.
Tried aggregator 4 times.
Detecting symmetries...
MIP Presolve eliminated 18729 rows and 7076 columns.
MIP Presolve modified 338 coefficients.
Aggregator did 695 substitutions.
Reduced MIP has 543330 rows, 213980 columns, and 1714815 nonzeros.
Reduced MIP has 213980 binaries, 0 generals, 0 SOSs, and 0 indicators.
Presolve time = 11.62 sec. (5802.99 ticks)
Probing time = 0.24 sec. (56.55 ticks)
Clique table members: 729652.
MIP emphasis: balance optimality and feasibility.
MIP search method: dynamic search.
Parallel mode: none, using 1 thread.
Root relaxation solution time = 510.31 sec. (96728.85 ticks)

        Nodes                                         Cuts/
   Node  Left     Objective  IInf  Best Integer    Best Bound    ItCnt     Gap

      0     0   223056.0833 89957                 223056.0833   232815         
